p cnf 7230 16
-5477 -5895 -5900 0
-5473 -5893 -5898 0
-5896 5900 0
-5894 5898 0
5895 5896 0
5893 5894 0
5477 -5896 0
5473 -5894 0
5899 5900 0
5713 -5900 0
-5713 -5899 0
5897 5898 0
5711 -5898 0
-5711 -5897 0
-5715 5902 0
5715 -5902 0
